(set-info :smt-lib-version 2.6)
(set-logic QF_BV)
(set-info :source |
 Patrice Godefroid, SAGE (systematic dynamic test generation)
 For more information: http://research.microsoft.com/en-us/um/people/pg/public_psfiles/ndss2008.pdf
|)
(set-info :category "industrial")
(set-info :status sat)
(declare-fun T1_2730 () (_ BitVec 8))
(declare-fun T1_2729 () (_ BitVec 8))
(declare-fun T1_2728 () (_ BitVec 8))
(declare-fun T1_2727 () (_ BitVec 8))
(declare-fun T1_2726 () (_ BitVec 8))
(declare-fun T1_2725 () (_ BitVec 8))
(declare-fun T1_2724 () (_ BitVec 8))
(declare-fun T1_2723 () (_ BitVec 8))
(declare-fun T1_2722 () (_ BitVec 8))
(declare-fun T1_2721 () (_ BitVec 8))
(declare-fun T1_2720 () (_ BitVec 8))
(assert (let ((?v_0 ((_ zero_extend 24) (_ bv3 8))) (?v_1 ((_ zero_extend 24) (_ bv4 8))) (?v_4 ((_ zero_extend 24) (_ bv8 8))) (?v_3 ((_ zero_extend 24) (_ bv6 8))) (?v_2 ((_ zero_extend 24) (_ bv1 8)))) (and true (bvslt (_ bv4294967295 32) (bvadd (bvashr (bvashr (bvadd (bvashr (bvadd (bvashr (bvadd (bvashr (bvadd (bvashr (bvashr (bvadd (bvashr (bvadd (bvashr (bvashr (bvadd (bvashr (bvashr (bvadd (bvashr (bvashr (bvashr (bvadd (bvashr (bvadd (bvshl ((_ zero_extend 24) T1_2720) ?v_0) (_ bv7 32)) ?v_4) (bvshl ((_ zero_extend 24) T1_2721) ?v_0)) ?v_1) ?v_1) ?v_0) ((_ zero_extend 24) T1_2722)) ((_ zero_extend 24) (_ bv7 8))) ?v_2) ((_ zero_extend 24) T1_2723)) ?v_1) ?v_0) (bvshl ((_ zero_extend 24) T1_2724) ?v_2)) ?v_3) (bvshl ((_ zero_extend 24) T1_2725) ?v_0)) ?v_1) ?v_3) (bvshl ((_ zero_extend 24) T1_2726) ?v_2)) ?v_3) (bvshl ((_ zero_extend 24) T1_2727) ?v_0)) ?v_4) (bvshl ((_ zero_extend 24) T1_2728) ?v_0)) ((_ zero_extend 24) (_ bv9 8))) (bvshl ((_ zero_extend 24) T1_2729) ((_ zero_extend 24) (_ bv2 8)))) ?v_1) ?v_0) (bvshl ((_ zero_extend 24) T1_2730) ?v_0))))))
(check-sat)
(exit)
